0 29 
1 29 
2 32 
3 34 
4 33 
5 32 
6 29 
7 30 
8 29 
9 28 
10 29 
11 27 
12 24 
13 24 
14 25 
15 25 
16 25 
17 24 
18 22 
19 23 
20 22 
21 21 
22 21 
23 19 
24 17 
25 17 
26 17 
27 17 
28 18 
29 16 
30 16 
31 16 
32 15 
33 14 
34 12 
35 7 
36 9 
37 11 
38 11 
39 11 
40 10 
41 7 
42 3 
43 2 
44 0 
45 0 

